\* rock_paper_scissors *\
Maximize
OBJ: vrs_w
Subject To
_C1: vrs_E.Honda >= 0
_C10: vrs_Abigail >= 0
_C11: vrs_Falke >= 0
_C12: vrs_Alex >= 0
_C13: vrs_Guile >= 0
_C14: vrs_Jam >= 0
_C15: vrs_G >= 0
_C16: vrs_Cody >= 0
_C17: vrs_Zangief >= 0
_C18: vrs_Poison >= 0
_C19: vrs_Zeku >= 0
_C2: vrs_Urien >= 0
_C20: vrs_Laura >= 0
_C21: vrs_Karin >= 0
_C22: vrs_Sagat >= 0
_C23: vrs_Nash >= 0
_C24: vrs_Necalli >= 0
_C25: vrs_Lucia >= 0
_C26: vrs_Ibuki >= 0
_C27: vrs_Gill >= 0
_C28: vrs_Kolin >= 0
_C29: vrs_ChunLi >= 0
_C3: vrs_CLAW >= 0
_C30: vrs_Juri >= 0
_C31: vrs_Ryu >= 0
_C32: vrs_Seth >= 0
_C33: vrs_Ken >= 0
_C34: vrs_Kage >= 0
_C35: vrs_R.Mika >= 0
_C36: vrs_Cammy >= 0
_C37: vrs_Sakura >= 0
_C38: vrs_Menat >= 0
_C39: vrs_Akuma >= 0
_C4: vrs_DICTATOR >= 0
_C40: vrs_Rashid >= 0
_C41: vrs_Abigail + vrs_Akuma + vrs_Alex + vrs_BOXER + vrs_Birdie + vrs_Blanka
 + vrs_CLAW + vrs_Cammy + vrs_ChunLi + vrs_Cody + vrs_DICTATOR + vrs_Dhalsim
 + vrs_E.Honda + vrs_Edd + vrs_Falke + vrs_G + vrs_Gill + vrs_Guile
 + vrs_Ibuki + vrs_Jam + vrs_Juri + vrs_Kage + vrs_Karin + vrs_Ken + vrs_Kolin
 + vrs_Laura + vrs_Lucia + vrs_Menat + vrs_Nash + vrs_Necalli + vrs_Poison
 + vrs_R.Mika + vrs_Rashid + vrs_Ryu + vrs_Sagat + vrs_Sakura + vrs_Seth
 + vrs_Urien + vrs_Zangief + vrs_Zeku = 1
_C42: 0.01 vrs_Abigail - 0.144 vrs_Akuma - 0.08 vrs_Alex - 0.182 vrs_BOXER
 - 0.068 vrs_Birdie - 0.164 vrs_Blanka - 0.034 vrs_CLAW - 0.268 vrs_Cammy
 - 0.128 vrs_ChunLi - 0.022 vrs_Cody - 0.062 vrs_DICTATOR - 0.218 vrs_Dhalsim
 - 0.058 vrs_Edd - 0.12 vrs_Falke - 0.15 vrs_G - 0.076 vrs_Gill
 - 0.042 vrs_Guile - 0.148 vrs_Ibuki - 0.078 vrs_Jam - 0.204 vrs_Juri
 - 0.126 vrs_Kage - 0.152 vrs_Karin - 0.122 vrs_Ken - 0.16 vrs_Kolin
 - 0.108 vrs_Laura - 0.184 vrs_Lucia - 0.24 vrs_Menat - 0.152 vrs_Nash
 - 0.188 vrs_Necalli - 0.18 vrs_Poison - 0.158 vrs_R.Mika - 0.236 vrs_Rashid
 - 0.07 vrs_Ryu - 0.054 vrs_Sagat - 0.13 vrs_Sakura - 0.224 vrs_Seth
 - 0.028 vrs_Urien - 0.034 vrs_Zangief - 0.114 vrs_Zeku - vrs_w >= 0
_C43: - 0.102 vrs_Abigail - 0.156 vrs_Akuma - 0.058 vrs_Alex - 0.03 vrs_BOXER
 - 0.052 vrs_Birdie - 0.096 vrs_Blanka + 0.022 vrs_CLAW - 0.144 vrs_Cammy
 - 0.098 vrs_ChunLi - 0.066 vrs_Cody + 0.006 vrs_DICTATOR - 0.078 vrs_Dhalsim
 + 0.028 vrs_E.Honda - 0.056 vrs_Edd - 0.048 vrs_Falke - 0.14 vrs_G
 - 0.106 vrs_Gill - 0.032 vrs_Guile - 0.064 vrs_Ibuki + 0.01 vrs_Jam
 - 0.098 vrs_Juri - 0.148 vrs_Kage - 0.074 vrs_Karin - 0.108 vrs_Ken
 - 0.144 vrs_Kolin - 0.09 vrs_Laura - 0.06 vrs_Lucia - 0.144 vrs_Menat
 - 0.044 vrs_Nash - 0.11 vrs_Necalli - 0.128 vrs_Poison - 0.134 vrs_R.Mika
 - 0.148 vrs_Rashid - 0.084 vrs_Ryu - 0.052 vrs_Sagat - 0.134 vrs_Sakura
 - 0.176 vrs_Seth - 0.106 vrs_Zangief - 0.098 vrs_Zeku - vrs_w >= 0
_C44: - 0.16 vrs_Abigail - 0.096 vrs_Akuma - 0.134 vrs_Alex + 0.004 vrs_BOXER
 - 0.06 vrs_Birdie + 0.026 vrs_Blanka - 0.12 vrs_Cammy - 0.02 vrs_ChunLi
 + 0.028 vrs_Cody - 0.094 vrs_DICTATOR - 0.142 vrs_Dhalsim + 0.034 vrs_E.Honda
 - 0.016 vrs_Edd - 0.048 vrs_Falke - 0.066 vrs_G - 0.09 vrs_Gill
 + 0.008 vrs_Guile - 0.132 vrs_Ibuki - 0.112 vrs_Jam - 0.134 vrs_Juri
 - 0.118 vrs_Kage - 0.064 vrs_Karin - 0.056 vrs_Ken - 0.026 vrs_Kolin
 + 0.028 vrs_Laura - 0.144 vrs_Lucia - 0.262 vrs_Menat - 0.134 vrs_Nash
 - 0.062 vrs_Necalli - 0.082 vrs_Poison - 0.064 vrs_R.Mika - 0.102 vrs_Rashid
 - 0.078 vrs_Ryu - 0.152 vrs_Sagat - 0.062 vrs_Sakura - 0.134 vrs_Seth
 - 0.022 vrs_Urien - 0.048 vrs_Zangief - 0.104 vrs_Zeku - vrs_w >= 0
_C45: 0.006 vrs_Abigail - 0.126 vrs_Akuma - 0.034 vrs_Alex - 0.056 vrs_BOXER
 - 0.056 vrs_Birdie + 0.05 vrs_Blanka + 0.094 vrs_CLAW - 0.114 vrs_Cammy
 - 0.038 vrs_ChunLi - 0.066 vrs_Cody - 0.092 vrs_Dhalsim + 0.062 vrs_E.Honda
 - 0.062 vrs_Edd - 0.108 vrs_Falke - 0.034 vrs_G - 0.13 vrs_Gill
 - 0.052 vrs_Guile - 0.104 vrs_Ibuki - 0.082 vrs_Jam - 0.126 vrs_Juri
 - 0.108 vrs_Kage - 0.068 vrs_Karin - 0.048 vrs_Ken - 0.082 vrs_Kolin
 + 0.032 vrs_Laura - 0.078 vrs_Lucia - 0.254 vrs_Menat - 0.094 vrs_Nash
 - 0.076 vrs_Necalli - 0.126 vrs_Poison - 0.038 vrs_R.Mika - 0.112 vrs_Rashid
 - 0.078 vrs_Ryu - 0.19 vrs_Sagat - 0.122 vrs_Sakura - 0.152 vrs_Seth
 - 0.006 vrs_Urien + 0.046 vrs_Zangief - 0.068 vrs_Zeku - vrs_w >= 0
_C46: 0.05 vrs_Abigail - 0.166 vrs_Akuma - 0.002 vrs_Alex + 0.006 vrs_BOXER
 - 0.068 vrs_Birdie - 0.026 vrs_CLAW - 0.11 vrs_Cammy - 0.086 vrs_ChunLi
 - 0.028 vrs_Cody - 0.05 vrs_DICTATOR - 0.12 vrs_Dhalsim + 0.164 vrs_E.Honda
 - 0.01 vrs_Edd - 0.082 vrs_Falke - 0.014 vrs_G - 0.086 vrs_Gill
 + 0.006 vrs_Guile - 0.13 vrs_Ibuki - 0.1 vrs_Jam - 0.122 vrs_Juri
 - 0.082 vrs_Kage - 0.058 vrs_Karin - 0.072 vrs_Ken - 0.13 vrs_Kolin
 - 0.016 vrs_Laura - 0.088 vrs_Lucia - 0.236 vrs_Menat - 0.076 vrs_Nash
 - 0.106 vrs_Necalli - 0.148 vrs_Poison - 0.076 vrs_R.Mika - 0.116 vrs_Rashid
 - 0.094 vrs_Ryu - 0.112 vrs_Sagat - 0.108 vrs_Sakura - 0.094 vrs_Seth
 + 0.096 vrs_Urien - 0.086 vrs_Zangief - 0.008 vrs_Zeku - vrs_w >= 0
_C47: 0.058 vrs_Abigail - 0.124 vrs_Akuma + 0.014 vrs_Alex + 0.024 vrs_Birdie
 - 0.006 vrs_Blanka - 0.004 vrs_CLAW - 0.142 vrs_Cammy - 0.06 vrs_ChunLi
 - 0.006 vrs_Cody + 0.056 vrs_DICTATOR - 0.058 vrs_Dhalsim + 0.184 vrs_E.Honda
 + 0.03 vrs_Edd - 0.128 vrs_Falke - 0.07 vrs_G - 0.14 vrs_Gill
 - 0.052 vrs_Guile - 0.102 vrs_Ibuki + 0.03 vrs_Jam - 0.088 vrs_Juri
 - 0.08 vrs_Kage - 0.074 vrs_Karin - 0.102 vrs_Ken - 0.106 vrs_Kolin
 + 0.004 vrs_Laura - 0.088 vrs_Lucia - 0.178 vrs_Menat - 0.122 vrs_Nash
 - 0.09 vrs_Necalli - 0.086 vrs_Poison - 0.06 vrs_R.Mika - 0.2 vrs_Rashid
 - 0.084 vrs_Ryu - 0.126 vrs_Sagat - 0.138 vrs_Sakura - 0.13 vrs_Seth
 + 0.03 vrs_Urien + 0.066 vrs_Zangief - 0.13 vrs_Zeku - vrs_w >= 0
_C48: 0.056 vrs_Abigail - 0.156 vrs_Akuma + 0.098 vrs_Alex + 0.058 vrs_BOXER
 - 0.042 vrs_Birdie + 0.12 vrs_Blanka + 0.142 vrs_CLAW - 0.026 vrs_Cammy
 - 0.132 vrs_ChunLi - 0.13 vrs_Cody + 0.092 vrs_DICTATOR + 0.218 vrs_E.Honda
 - 0.066 vrs_Edd - 0.158 vrs_Falke - 0.006 vrs_G - 0.102 vrs_Gill
 - 0.082 vrs_Guile + 0.004 vrs_Ibuki - 0.048 vrs_Jam - 0.046 vrs_Juri
 - 0.062 vrs_Kage - 0.052 vrs_Karin - 0.046 vrs_Ken + 0.024 vrs_Kolin
 + 0.008 vrs_Laura - 0.054 vrs_Lucia - 0.134 vrs_Menat - 0.104 vrs_Nash
 - 0.156 vrs_Poison - 0.022 vrs_R.Mika + 0.044 vrs_Rashid - 0.14 vrs_Ryu
 - 0.216 vrs_Sagat - 0.124 vrs_Sakura - 0.162 vrs_Seth + 0.078 vrs_Urien
 - 0.322 vrs_Zangief + 0.046 vrs_Zeku - vrs_w >= 0
_C49: - 0.096 vrs_Abigail - 0.11 vrs_Akuma - 0.054 vrs_Alex - 0.03 vrs_BOXER
 + 0.002 vrs_Birdie + 0.01 vrs_Blanka + 0.016 vrs_CLAW - 0.15 vrs_Cammy
 - 0.072 vrs_ChunLi - 0.048 vrs_Cody + 0.062 vrs_DICTATOR + 0.066 vrs_Dhalsim
 + 0.058 vrs_E.Honda + 0.04 vrs_Falke - 0.026 vrs_G - 0.036 vrs_Gill
 + 0.004 vrs_Guile - 0.098 vrs_Ibuki - 0.076 vrs_Jam - 0.074 vrs_Juri
 - 0.068 vrs_Kage - 0.068 vrs_Karin - 0.04 vrs_Ken - 0.124 vrs_Kolin
 - 0.118 vrs_Laura - 0.108 vrs_Lucia - 0.146 vrs_Menat - 0.036 vrs_Nash
 - 0.072 vrs_Necalli - 0.058 vrs_Poison - 0.142 vrs_R.Mika - 0.214 vrs_Rashid
 - 0.014 vrs_Ryu + 0.002 vrs_Sagat - 0.086 vrs_Sakura - 0.116 vrs_Seth
 + 0.056 vrs_Urien - 0.082 vrs_Zangief - 0.026 vrs_Zeku - vrs_w >= 0
_C5: vrs_Blanka >= 0
_C50: 0.106 vrs_Abigail - 0.108 vrs_Akuma - 0.01 vrs_Alex - 0.024 vrs_BOXER
 + 0.068 vrs_Blanka + 0.06 vrs_CLAW - 0.092 vrs_Cammy - 0.072 vrs_ChunLi
 - 0.046 vrs_Cody + 0.056 vrs_DICTATOR + 0.042 vrs_Dhalsim + 0.068 vrs_E.Honda
 - 0.002 vrs_Edd - 0.002 vrs_Falke - 0.056 vrs_G - 0.044 vrs_Gill
 - 0.008 vrs_Guile - 0.074 vrs_Ibuki - 0.05 vrs_Jam - 0.116 vrs_Juri
 - 0.104 vrs_Kage - 0.14 vrs_Karin - 0.02 vrs_Ken - 0.144 vrs_Kolin
 - 0.008 vrs_Laura - 0.02 vrs_Lucia - 0.168 vrs_Menat - 0.022 vrs_Nash
 - 0.05 vrs_Necalli - 0.106 vrs_Poison - 0.114 vrs_R.Mika - 0.072 vrs_Rashid
 - 0.07 vrs_Ryu - 0.07 vrs_Sagat - 0.066 vrs_Sakura - 0.156 vrs_Seth
 + 0.052 vrs_Urien - 0.096 vrs_Zangief - 0.102 vrs_Zeku - vrs_w >= 0
_C51: - 0.082 vrs_Akuma - 0.048 vrs_Alex - 0.058 vrs_BOXER - 0.106 vrs_Birdie
 - 0.05 vrs_Blanka + 0.16 vrs_CLAW - 0.15 vrs_Cammy - 0.04 vrs_ChunLi
 - 0.026 vrs_Cody - 0.006 vrs_DICTATOR - 0.056 vrs_Dhalsim - 0.01 vrs_E.Honda
 + 0.096 vrs_Edd + 0.016 vrs_Falke - 0.078 vrs_G - 0.052 vrs_Gill
 + 0.04 vrs_Guile - 0.128 vrs_Ibuki - 0.044 vrs_Jam - 0.048 vrs_Juri
 - 0.044 vrs_Kage - 0.09 vrs_Karin + 0.01 vrs_Ken - 0.094 vrs_Kolin
 - 0.046 vrs_Laura - 0.002 vrs_Lucia - 0.166 vrs_Menat - 0.034 vrs_Nash
 + 0.022 vrs_Necalli - 0.146 vrs_Poison - 0.108 vrs_R.Mika - 0.086 vrs_Rashid
 - 0.032 vrs_Ryu - 0.04 vrs_Sagat + 0.002 vrs_Sakura - 0.152 vrs_Seth
 + 0.102 vrs_Urien - 0.188 vrs_Zangief - 0.042 vrs_Zeku - vrs_w >= 0
_C52: - 0.016 vrs_Abigail - 0.096 vrs_Akuma - 0.032 vrs_Alex + 0.128 vrs_BOXER
 + 0.002 vrs_Birdie + 0.082 vrs_Blanka + 0.05 vrs_CLAW - 0.122 vrs_Cammy
 - 0.062 vrs_ChunLi - 0.024 vrs_Cody + 0.108 vrs_DICTATOR + 0.158 vrs_Dhalsim
 + 0.12 vrs_E.Honda - 0.04 vrs_Edd + 0.014 vrs_G - 0.008 vrs_Gill
 + 0.016 vrs_Guile - 0.024 vrs_Ibuki - 0.04 vrs_Jam - 0.074 vrs_Juri
 - 0.112 vrs_Kage - 0.072 vrs_Karin - 0.058 vrs_Ken - 0.024 vrs_Kolin
 - 0.044 vrs_Laura - 0.036 vrs_Lucia - 0.084 vrs_Menat + 0.01 vrs_Nash
 - 0.016 vrs_Necalli + 0.018 vrs_Poison - 0.078 vrs_R.Mika - 0.096 vrs_Rashid
 - 0.056 vrs_Ryu - 0.102 vrs_Sagat - 0.094 vrs_Sakura - 0.04 vrs_Seth
 + 0.05 vrs_Urien - 0.16 vrs_Zangief - 0.026 vrs_Zeku - vrs_w >= 0
_C53: 0.048 vrs_Abigail - 0.09 vrs_Akuma - 0.014 vrs_BOXER + 0.01 vrs_Birdie
 + 0.002 vrs_Blanka + 0.134 vrs_CLAW - 0.084 vrs_Cammy - 0.02 vrs_ChunLi
 + 0.04 vrs_Cody + 0.034 vrs_DICTATOR - 0.098 vrs_Dhalsim + 0.08 vrs_E.Honda
 + 0.054 vrs_Edd + 0.032 vrs_Falke - 0.066 vrs_G - 0.048 vrs_Gill
 - 0.056 vrs_Guile - 0.058 vrs_Ibuki - 0.002 vrs_Jam - 0.088 vrs_Juri
 - 0.07 vrs_Kage - 0.062 vrs_Karin - 0.028 vrs_Ken - 0.036 vrs_Kolin
 + 0.02 vrs_Laura - 0.034 vrs_Lucia - 0.144 vrs_Menat - 0.054 vrs_Nash
 - 0.056 vrs_Necalli - 0.124 vrs_Poison - 0.058 vrs_R.Mika - 0.066 vrs_Rashid
 - 0.04 vrs_Ryu - 0.078 vrs_Sagat - 0.034 vrs_Sakura - 0.086 vrs_Seth
 + 0.058 vrs_Urien - 0.028 vrs_Zangief - 0.062 vrs_Zeku - vrs_w >= 0
_C54: - 0.04 vrs_Abigail - 0.112 vrs_Akuma + 0.056 vrs_Alex + 0.052 vrs_BOXER
 + 0.008 vrs_Birdie - 0.006 vrs_Blanka - 0.008 vrs_CLAW - 0.062 vrs_Cammy
 + 0.002 vrs_ChunLi - 0.03 vrs_Cody + 0.052 vrs_DICTATOR + 0.082 vrs_Dhalsim
 + 0.042 vrs_E.Honda - 0.004 vrs_Edd - 0.016 vrs_Falke - 0.016 vrs_G
 - 0.06 vrs_Gill + 0.034 vrs_Ibuki + 0.032 vrs_Jam - 0.014 vrs_Juri
 - 0.024 vrs_Kage + 0.054 vrs_Karin - 0.114 vrs_Ken - 0.016 vrs_Kolin
 + 0.022 vrs_Laura - 0.042 vrs_Lucia - 0.064 vrs_Menat - 0.036 vrs_Nash
 + 0.016 vrs_Necalli + 0.056 vrs_Poison - 0.054 vrs_R.Mika - 0.132 vrs_Rashid
 - 0.078 vrs_Ryu - 0.112 vrs_Sagat - 0.076 vrs_Sakura - 0.032 vrs_Seth
 + 0.032 vrs_Urien + 0.028 vrs_Zangief + 0.004 vrs_Zeku - vrs_w >= 0
_C55: 0.044 vrs_Abigail - 0.098 vrs_Akuma + 0.002 vrs_Alex - 0.03 vrs_BOXER
 + 0.05 vrs_Birdie + 0.1 vrs_Blanka + 0.112 vrs_CLAW - 0.01 vrs_Cammy
 - 0.066 vrs_ChunLi - 0.04 vrs_Cody + 0.082 vrs_DICTATOR + 0.048 vrs_Dhalsim
 + 0.078 vrs_E.Honda + 0.076 vrs_Edd + 0.042 vrs_Falke - 0.028 vrs_G
 - 0.122 vrs_Gill - 0.032 vrs_Guile - 0.046 vrs_Ibuki - 0.014 vrs_Juri
 - 0.04 vrs_Kage - 0.108 vrs_Karin - 0.038 vrs_Ken - 0.068 vrs_Kolin
 + 0.072 vrs_Laura - 0.064 vrs_Lucia - 0.074 vrs_Menat - 0.024 vrs_Nash
 + 0.03 vrs_Necalli - 0.036 vrs_Poison - 0.048 vrs_R.Mika - 0.06 vrs_Rashid
 - 0.082 vrs_Ryu - 0.092 vrs_Sagat - 0.042 vrs_Sakura - 0.128 vrs_Seth
 - 0.01 vrs_Urien + 0.012 vrs_Zangief + 0.008 vrs_Zeku - vrs_w >= 0
_C56: 0.078 vrs_Abigail - 0.092 vrs_Akuma + 0.066 vrs_Alex + 0.07 vrs_BOXER
 + 0.056 vrs_Birdie + 0.014 vrs_Blanka + 0.066 vrs_CLAW - 0.11 vrs_Cammy
 - 0.014 vrs_ChunLi + 0.052 vrs_Cody + 0.034 vrs_DICTATOR + 0.006 vrs_Dhalsim
 + 0.15 vrs_E.Honda + 0.026 vrs_Edd - 0.014 vrs_Falke + 0.016 vrs_Guile
 - 0.048 vrs_Ibuki + 0.028 vrs_Jam - 0.056 vrs_Juri - 0.074 vrs_Kage
 - 0.018 vrs_Karin - 0.064 vrs_Ken - 0.046 vrs_Kolin + 0.02 vrs_Laura
 - 0.04 vrs_Lucia - 0.094 vrs_Menat - 0.018 vrs_Nash - 0.08 vrs_Necalli
 - 0.044 vrs_Poison + 0.008 vrs_R.Mika - 0.08 vrs_Rashid - 0.068 vrs_Ryu
 + 0.014 vrs_Sagat - 0.064 vrs_Sakura - 0.072 vrs_Seth + 0.14 vrs_Urien
 - 0.088 vrs_Zangief - 0.052 vrs_Zeku - vrs_w >= 0
_C57: 0.026 vrs_Abigail - 0.06 vrs_Akuma - 0.04 vrs_Alex + 0.006 vrs_BOXER
 + 0.046 vrs_Birdie + 0.028 vrs_Blanka - 0.028 vrs_CLAW - 0.128 vrs_Cammy
 - 0.052 vrs_ChunLi + 0.066 vrs_DICTATOR + 0.13 vrs_Dhalsim
 + 0.022 vrs_E.Honda + 0.048 vrs_Edd + 0.024 vrs_Falke - 0.052 vrs_G
 - 0.082 vrs_Gill + 0.03 vrs_Guile - 0.052 vrs_Ibuki + 0.04 vrs_Jam
 - 0.024 vrs_Juri - 0.052 vrs_Kage - 0.036 vrs_Karin - 0.048 vrs_Ken
 - 0.03 vrs_Kolin - 0.006 vrs_Laura - 0.078 vrs_Lucia - 0.084 vrs_Menat
 - 0.014 vrs_Nash - 0.032 vrs_Necalli + 0.058 vrs_Poison - 0.08 vrs_R.Mika
 - 0.142 vrs_Rashid - 0.008 vrs_Ryu + 0.046 vrs_Sagat - 0.066 vrs_Sakura
 - 0.052 vrs_Seth + 0.066 vrs_Urien + 0.012 vrs_Zangief - 0.032 vrs_Zeku
 - vrs_w >= 0
_C58: 0.188 vrs_Abigail - 0.144 vrs_Akuma + 0.028 vrs_Alex - 0.066 vrs_BOXER
 + 0.096 vrs_Birdie + 0.086 vrs_Blanka + 0.048 vrs_CLAW - 0.098 vrs_Cammy
 - 0.058 vrs_ChunLi - 0.012 vrs_Cody - 0.046 vrs_DICTATOR + 0.324 vrs_Dhalsim
 + 0.034 vrs_E.Honda + 0.082 vrs_Edd + 0.16 vrs_Falke + 0.088 vrs_G
 + 0.034 vrs_Gill - 0.028 vrs_Guile - 0.074 vrs_Ibuki - 0.012 vrs_Jam
 - 0.046 vrs_Juri - 0.106 vrs_Kage - 0.066 vrs_Karin - 0.03 vrs_Ken
 - 0.074 vrs_Kolin - 0.11 vrs_Laura + 0.022 vrs_Lucia + 0.078 vrs_Menat
 + 0.082 vrs_Nash - 0.016 vrs_Necalli + 0.142 vrs_Poison - 0.132 vrs_R.Mika
 - 0.098 vrs_Rashid - 0.042 vrs_Ryu + 0.108 vrs_Sagat - 0.022 vrs_Sakura
 - 0.082 vrs_Seth + 0.106 vrs_Urien + 0.038 vrs_Zeku - vrs_w >= 0
_C59: 0.146 vrs_Abigail - 0.092 vrs_Akuma + 0.124 vrs_Alex + 0.086 vrs_BOXER
 + 0.106 vrs_Birdie + 0.148 vrs_Blanka + 0.082 vrs_CLAW - 0.022 vrs_Cammy
 - 0.048 vrs_ChunLi - 0.056 vrs_Cody + 0.126 vrs_DICTATOR + 0.156 vrs_Dhalsim
 + 0.18 vrs_E.Honda + 0.058 vrs_Edd - 0.018 vrs_Falke + 0.044 vrs_G
 - 0.018 vrs_Gill - 0.056 vrs_Guile - 0.012 vrs_Ibuki + 0.036 vrs_Jam
 - 0.046 vrs_Juri - 0.022 vrs_Kage + 0.01 vrs_Karin - 0.064 vrs_Ken
 - 0.058 vrs_Kolin + 0.016 vrs_Laura - 0.006 vrs_Lucia - 0.076 vrs_Menat
 + 0.006 vrs_Nash + 0.012 vrs_Necalli - 0.004 vrs_R.Mika + 0.004 vrs_Rashid
 - 0.112 vrs_Ryu - 0.096 vrs_Sagat - 0.078 vrs_Sakura - 0.018 vrs_Seth
 + 0.128 vrs_Urien - 0.142 vrs_Zangief - 0.022 vrs_Zeku - vrs_w >= 0
_C6: vrs_BOXER >= 0
_C60: 0.042 vrs_Abigail - 0.118 vrs_Akuma + 0.062 vrs_Alex + 0.13 vrs_BOXER
 + 0.102 vrs_Birdie + 0.008 vrs_Blanka + 0.104 vrs_CLAW - 0.068 vrs_Cammy
 + 0.002 vrs_ChunLi + 0.032 vrs_Cody + 0.068 vrs_DICTATOR - 0.046 vrs_Dhalsim
 + 0.114 vrs_E.Honda + 0.026 vrs_Edd + 0.026 vrs_Falke + 0.052 vrs_G
 + 0.012 vrs_Gill - 0.004 vrs_Guile - 0.01 vrs_Ibuki - 0.008 vrs_Jam
 + 0.028 vrs_Juri - 0.078 vrs_Kage + 0.014 vrs_Karin - 0.042 vrs_Ken
 + 0.016 vrs_Kolin + 0.024 vrs_Laura - 0.014 vrs_Lucia - 0.15 vrs_Menat
 - 0.044 vrs_Nash + 0.002 vrs_Necalli + 0.022 vrs_Poison - 0.03 vrs_R.Mika
 - 0.046 vrs_Rashid - 0.038 vrs_Ryu - 0.026 vrs_Sagat - 0.064 vrs_Sakura
 - 0.024 vrs_Seth + 0.098 vrs_Urien - 0.038 vrs_Zangief - vrs_w >= 0
_C61: 0.046 vrs_Abigail - 0.064 vrs_Akuma - 0.02 vrs_Alex - 0.004 vrs_BOXER
 + 0.008 vrs_Birdie + 0.016 vrs_Blanka - 0.028 vrs_CLAW - 0.066 vrs_Cammy
 - 0.038 vrs_ChunLi + 0.006 vrs_Cody - 0.032 vrs_DICTATOR - 0.008 vrs_Dhalsim
 + 0.108 vrs_E.Honda + 0.118 vrs_Edd + 0.044 vrs_Falke - 0.02 vrs_G
 - 0.034 vrs_Gill - 0.022 vrs_Guile - 0.018 vrs_Ibuki - 0.072 vrs_Jam
 - 0.004 vrs_Juri + 0.012 vrs_Kage + 0.004 vrs_Karin + 0.014 vrs_Ken
 - 0.04 vrs_Kolin + 0.022 vrs_Lucia - 0.126 vrs_Menat - 0.076 vrs_Nash
 - 0.034 vrs_Necalli - 0.016 vrs_Poison - 0.08 vrs_R.Mika - 0.116 vrs_Rashid
 + 0.018 vrs_Ryu + 0.016 vrs_Sagat - 0.006 vrs_Sakura - 0.024 vrs_Seth
 + 0.09 vrs_Urien + 0.11 vrs_Zangief - 0.024 vrs_Zeku - vrs_w >= 0
_C62: 0.09 vrs_Abigail - 0.08 vrs_Akuma + 0.062 vrs_Alex + 0.074 vrs_BOXER
 + 0.14 vrs_Birdie + 0.058 vrs_Blanka + 0.064 vrs_CLAW - 0.036 vrs_Cammy
 - 0.012 vrs_ChunLi + 0.036 vrs_Cody + 0.068 vrs_DICTATOR + 0.052 vrs_Dhalsim
 + 0.152 vrs_E.Honda + 0.068 vrs_Edd + 0.072 vrs_Falke + 0.018 vrs_G
 - 0.034 vrs_Gill - 0.054 vrs_Guile + 0.032 vrs_Ibuki + 0.108 vrs_Jam
 - 0.032 vrs_Juri - 0.044 vrs_Kage - 0.048 vrs_Ken + 0.004 vrs_Kolin
 - 0.004 vrs_Laura - 0.002 vrs_Lucia - 0.03 vrs_Menat - 0.008 vrs_Nash
 + 0.004 vrs_Necalli - 0.01 vrs_Poison - 0.052 vrs_R.Mika - 0.078 vrs_Rashid
 - 0.04 vrs_Ryu - 0.02 vrs_Sagat - 0.094 vrs_Sakura + 0.026 vrs_Seth
 + 0.074 vrs_Urien + 0.066 vrs_Zangief - 0.014 vrs_Zeku - vrs_w >= 0
_C63: 0.04 vrs_Abigail - 0.068 vrs_Akuma + 0.078 vrs_Alex + 0.126 vrs_BOXER
 + 0.07 vrs_Birdie + 0.114 vrs_Blanka + 0.152 vrs_CLAW - 0.076 vrs_Cammy
 - 0.008 vrs_ChunLi - 0.046 vrs_Cody + 0.19 vrs_DICTATOR + 0.216 vrs_Dhalsim
 + 0.054 vrs_E.Honda - 0.002 vrs_Edd + 0.102 vrs_Falke - 0.014 vrs_G
 - 0.056 vrs_Gill + 0.112 vrs_Guile + 0.024 vrs_Ibuki + 0.092 vrs_Jam
 - 0.036 vrs_Juri - 0.058 vrs_Kage + 0.02 vrs_Karin - 0.08 vrs_Ken
 - 0.014 vrs_Kolin - 0.016 vrs_Laura - 0.034 vrs_Lucia - 0.018 vrs_Menat
 + 0.09 vrs_Nash + 0.038 vrs_Necalli + 0.096 vrs_Poison - 0.054 vrs_R.Mika
 - 0.06 vrs_Rashid - 0.048 vrs_Ryu - 0.058 vrs_Sakura - 0.088 vrs_Seth
 + 0.052 vrs_Urien - 0.108 vrs_Zangief + 0.026 vrs_Zeku - vrs_w >= 0
_C64: 0.034 vrs_Abigail - 0.062 vrs_Akuma + 0.054 vrs_Alex + 0.122 vrs_BOXER
 + 0.022 vrs_Birdie + 0.076 vrs_Blanka + 0.134 vrs_CLAW - 0.026 vrs_Cammy
 - 0.048 vrs_ChunLi + 0.014 vrs_Cody + 0.094 vrs_DICTATOR + 0.104 vrs_Dhalsim
 + 0.152 vrs_E.Honda + 0.036 vrs_Edd - 0.01 vrs_Falke + 0.018 vrs_G
 - 0.022 vrs_Gill + 0.036 vrs_Guile + 0.028 vrs_Ibuki + 0.024 vrs_Jam
 + 0.018 vrs_Juri - 0.038 vrs_Kage + 0.008 vrs_Karin - 0.03 vrs_Ken
 + 0.004 vrs_Kolin + 0.076 vrs_Laura - 0.018 vrs_Lucia - 0.152 vrs_Menat
 + 0.016 vrs_Necalli - 0.006 vrs_Poison + 0.026 vrs_R.Mika - 0.056 vrs_Rashid
 - 0.038 vrs_Ryu - 0.09 vrs_Sagat - 0.056 vrs_Sakura - 0.012 vrs_Seth
 + 0.044 vrs_Urien - 0.082 vrs_Zangief + 0.044 vrs_Zeku - vrs_w >= 0
_C65: - 0.022 vrs_Abigail - 0.052 vrs_Akuma + 0.056 vrs_Alex + 0.09 vrs_BOXER
 + 0.05 vrs_Birdie + 0.106 vrs_Blanka + 0.062 vrs_CLAW - 0.034 vrs_Cammy
 - 0.042 vrs_ChunLi + 0.032 vrs_Cody + 0.076 vrs_DICTATOR + 0.188 vrs_E.Honda
 + 0.072 vrs_Edd + 0.016 vrs_Falke + 0.08 vrs_G - 0.036 vrs_Gill
 - 0.016 vrs_Guile - 0.03 vrs_Jam + 0.004 vrs_Juri - 0.014 vrs_Kage
 - 0.004 vrs_Karin - 0.012 vrs_Ken + 0.026 vrs_Kolin + 0.034 vrs_Laura
 + 0.002 vrs_Lucia - 0.076 vrs_Menat - 0.016 vrs_Nash - 0.012 vrs_Poison
 - 0.044 vrs_R.Mika - 0.076 vrs_Rashid - 0.024 vrs_Ryu - 0.038 vrs_Sagat
 - 0.06 vrs_Sakura - 0.008 vrs_Seth + 0.11 vrs_Urien + 0.016 vrs_Zangief
 - 0.002 vrs_Zeku - vrs_w >= 0
_C66: 0.002 vrs_Abigail - 0.07 vrs_Akuma + 0.034 vrs_Alex + 0.09 vrs_BOXER
 + 0.02 vrs_Birdie + 0.088 vrs_Blanka + 0.144 vrs_CLAW - 0.044 vrs_Cammy
 - 0.002 vrs_ChunLi + 0.078 vrs_Cody + 0.078 vrs_DICTATOR + 0.054 vrs_Dhalsim
 + 0.184 vrs_E.Honda + 0.108 vrs_Edd + 0.036 vrs_Falke + 0.04 vrs_G
 + 0.054 vrs_Gill + 0.042 vrs_Guile - 0.016 vrs_Ibuki + 0.064 vrs_Jam
 - 0.048 vrs_Juri + 0.018 vrs_Kage + 0.002 vrs_Karin - 0.044 vrs_Ken
 - 0.01 vrs_Kolin - 0.022 vrs_Laura - 0.106 vrs_Menat + 0.018 vrs_Nash
 - 0.002 vrs_Necalli + 0.006 vrs_Poison - 0.048 vrs_R.Mika - 0.084 vrs_Rashid
 - 0.02 vrs_Ryu + 0.034 vrs_Sagat - 0.042 vrs_Sakura - 0.018 vrs_Seth
 + 0.06 vrs_Urien - 0.022 vrs_Zangief + 0.014 vrs_Zeku - vrs_w >= 0
_C67: 0.128 vrs_Abigail - 0.054 vrs_Akuma + 0.058 vrs_Alex + 0.102 vrs_BOXER
 + 0.074 vrs_Birdie + 0.13 vrs_Blanka + 0.132 vrs_CLAW - 0.01 vrs_Cammy
 - 0.012 vrs_ChunLi + 0.052 vrs_Cody + 0.104 vrs_DICTATOR - 0.004 vrs_Dhalsim
 + 0.148 vrs_E.Honda + 0.098 vrs_Edd + 0.024 vrs_Falke + 0.048 vrs_G
 - 0.038 vrs_Gill - 0.034 vrs_Guile + 0.046 vrs_Jam + 0.008 vrs_Juri
 - 0.016 vrs_Kage - 0.032 vrs_Karin - 0.04 vrs_Ken - 0.024 vrs_Kolin
 + 0.018 vrs_Laura + 0.016 vrs_Lucia - 0.02 vrs_Menat - 0.028 vrs_Nash
 + 0.012 vrs_Poison - 0.04 vrs_R.Mika - 0.07 vrs_Rashid - 0.022 vrs_Ryu
 - 0.024 vrs_Sagat - 0.058 vrs_Sakura + 0.006 vrs_Seth + 0.066 vrs_Urien
 + 0.074 vrs_Zangief + 0.01 vrs_Zeku - vrs_w >= 0
_C68: 0.052 vrs_Abigail - 0.06 vrs_Akuma + 0.048 vrs_Alex + 0.14 vrs_BOXER
 + 0.044 vrs_Birdie + 0.086 vrs_Blanka + 0.09 vrs_CLAW - 0.074 vrs_Cammy
 + 0.034 vrs_ChunLi + 0.082 vrs_Cody + 0.13 vrs_DICTATOR + 0.102 vrs_Dhalsim
 + 0.076 vrs_E.Honda + 0.036 vrs_Edd + 0.008 vrs_Falke + 0.06 vrs_Guile
 + 0.038 vrs_Ibuki + 0.122 vrs_Jam - 0.01 vrs_Juri - 0.074 vrs_Kage
 + 0.034 vrs_Karin - 0.06 vrs_Ken - 0.01 vrs_Kolin + 0.034 vrs_Laura
 - 0.054 vrs_Lucia + 0.046 vrs_Menat + 0.022 vrs_Nash + 0.036 vrs_Necalli
 + 0.018 vrs_Poison - 0.074 vrs_R.Mika - 0.05 vrs_Rashid - 0.03 vrs_Ryu
 + 0.056 vrs_Sagat - 0.052 vrs_Sakura - 0.058 vrs_Seth + 0.106 vrs_Urien
 - 0.034 vrs_Zangief - 0.012 vrs_Zeku - vrs_w >= 0
_C69: 0.094 vrs_Abigail - 0.052 vrs_Akuma + 0.036 vrs_Alex + 0.106 vrs_BOXER
 + 0.144 vrs_Birdie + 0.13 vrs_Blanka + 0.026 vrs_CLAW - 0.076 vrs_Cammy
 + 0.032 vrs_ChunLi + 0.03 vrs_Cody + 0.082 vrs_DICTATOR - 0.024 vrs_Dhalsim
 + 0.16 vrs_E.Honda + 0.124 vrs_Edd + 0.024 vrs_Falke + 0.046 vrs_G
 + 0.01 vrs_Gill + 0.016 vrs_Guile + 0.024 vrs_Ibuki + 0.068 vrs_Jam
 + 0.008 vrs_Juri - 0.028 vrs_Kage - 0.004 vrs_Karin - 0.024 vrs_Ken
 + 0.04 vrs_Laura + 0.01 vrs_Lucia - 0.06 vrs_Menat - 0.004 vrs_Nash
 - 0.026 vrs_Necalli + 0.058 vrs_Poison - 0.052 vrs_R.Mika - 0.09 vrs_Rashid
 - 0.012 vrs_Ryu + 0.014 vrs_Sagat - 0.034 vrs_Sakura - 0.02 vrs_Seth
 + 0.144 vrs_Urien + 0.074 vrs_Zangief - 0.016 vrs_Zeku - vrs_w >= 0
_C7: vrs_Dhalsim >= 0
_C70: 0.04 vrs_Abigail - 0.026 vrs_Akuma + 0.02 vrs_Alex + 0.06 vrs_BOXER
 + 0.072 vrs_Birdie + 0.086 vrs_Blanka + 0.02 vrs_CLAW + 0.008 vrs_Cammy
 + 0.052 vrs_Cody + 0.038 vrs_DICTATOR + 0.132 vrs_Dhalsim + 0.128 vrs_E.Honda
 + 0.072 vrs_Edd + 0.062 vrs_Falke + 0.014 vrs_G - 0.034 vrs_Gill
 - 0.002 vrs_Guile + 0.012 vrs_Ibuki + 0.066 vrs_Jam - 0.006 vrs_Juri
 + 0.012 vrs_Karin + 0.018 vrs_Ken - 0.032 vrs_Kolin + 0.038 vrs_Laura
 + 0.002 vrs_Lucia + 0.01 vrs_Menat + 0.048 vrs_Nash + 0.042 vrs_Necalli
 + 0.05 vrs_Poison - 0.006 vrs_R.Mika - 0.07 vrs_Rashid - 0.004 vrs_Ryu
 + 0.008 vrs_Sagat - 0.052 vrs_Sakura - 0.04 vrs_Seth + 0.098 vrs_Urien
 + 0.058 vrs_Zangief - 0.002 vrs_Zeku - vrs_w >= 0
_C71: 0.048 vrs_Abigail - 0.058 vrs_Akuma + 0.088 vrs_Alex + 0.088 vrs_BOXER
 + 0.116 vrs_Birdie + 0.122 vrs_Blanka + 0.134 vrs_CLAW - 0.062 vrs_Cammy
 + 0.006 vrs_ChunLi + 0.024 vrs_Cody + 0.126 vrs_DICTATOR + 0.046 vrs_Dhalsim
 + 0.206 vrs_E.Honda + 0.074 vrs_Edd + 0.074 vrs_Falke + 0.056 vrs_G
 + 0.01 vrs_Gill + 0.014 vrs_Guile - 0.008 vrs_Ibuki + 0.014 vrs_Jam
 - 0.01 vrs_Kage + 0.032 vrs_Karin + 0.018 vrs_Ken - 0.008 vrs_Kolin
 + 0.004 vrs_Laura + 0.048 vrs_Lucia - 0.056 vrs_Menat - 0.018 vrs_Nash
 - 0.004 vrs_Necalli + 0.046 vrs_Poison - 0.026 vrs_R.Mika - 0.036 vrs_Rashid
 - 0.018 vrs_Ryu + 0.036 vrs_Sagat - 0.06 vrs_Sakura + 0.028 vrs_Seth
 + 0.098 vrs_Urien + 0.046 vrs_Zangief - 0.028 vrs_Zeku - vrs_w >= 0
_C72: 0.032 vrs_Abigail - 0.038 vrs_Akuma + 0.04 vrs_Alex + 0.084 vrs_BOXER
 + 0.07 vrs_Birdie + 0.094 vrs_Blanka + 0.078 vrs_CLAW + 0.004 vrs_Cammy
 + 0.004 vrs_ChunLi + 0.008 vrs_Cody + 0.078 vrs_DICTATOR + 0.14 vrs_Dhalsim
 + 0.07 vrs_E.Honda + 0.014 vrs_Edd + 0.056 vrs_Falke + 0.068 vrs_G
 + 0.03 vrs_Gill + 0.078 vrs_Guile + 0.022 vrs_Ibuki + 0.082 vrs_Jam
 + 0.018 vrs_Juri - 0.026 vrs_Kage + 0.04 vrs_Karin - 0.032 vrs_Ken
 + 0.012 vrs_Kolin - 0.018 vrs_Laura + 0.02 vrs_Lucia + 0.004 vrs_Menat
 + 0.038 vrs_Nash + 0.024 vrs_Necalli + 0.112 vrs_Poison - 0.05 vrs_R.Mika
 - 0.078 vrs_Rashid + 0.048 vrs_Sagat - 0.032 vrs_Sakura + 0.04 vrs_Seth
 + 0.084 vrs_Urien + 0.042 vrs_Zangief + 0.038 vrs_Zeku - vrs_w >= 0
_C73: 0.152 vrs_Abigail - 0.088 vrs_Akuma + 0.086 vrs_Alex + 0.13 vrs_BOXER
 + 0.156 vrs_Birdie + 0.094 vrs_Blanka + 0.134 vrs_CLAW - 0.082 vrs_Cammy
 + 0.04 vrs_ChunLi + 0.052 vrs_Cody + 0.152 vrs_DICTATOR + 0.162 vrs_Dhalsim
 + 0.224 vrs_E.Honda + 0.116 vrs_Edd + 0.04 vrs_Falke + 0.072 vrs_G
 + 0.058 vrs_Gill + 0.032 vrs_Guile - 0.006 vrs_Ibuki + 0.128 vrs_Jam
 - 0.028 vrs_Juri - 0.064 vrs_Kage - 0.026 vrs_Karin - 0.04 vrs_Ken
 + 0.02 vrs_Kolin + 0.024 vrs_Laura + 0.018 vrs_Lucia + 0.046 vrs_Menat
 + 0.012 vrs_Nash + 0.008 vrs_Necalli + 0.018 vrs_Poison - 0.056 vrs_R.Mika
 - 0.108 vrs_Rashid - 0.04 vrs_Ryu + 0.088 vrs_Sagat - 0.07 vrs_Sakura
 + 0.176 vrs_Urien + 0.082 vrs_Zangief + 0.024 vrs_Zeku - vrs_w >= 0
_C74: - 0.01 vrs_Abigail - 0.018 vrs_Akuma + 0.028 vrs_Alex + 0.102 vrs_BOXER
 + 0.02 vrs_Birdie + 0.072 vrs_Blanka + 0.056 vrs_CLAW - 0.006 vrs_Cammy
 - 0.018 vrs_ChunLi + 0.048 vrs_Cody + 0.048 vrs_DICTATOR + 0.046 vrs_Dhalsim
 + 0.122 vrs_E.Honda + 0.04 vrs_Edd + 0.058 vrs_Falke + 0.064 vrs_G
 + 0.06 vrs_Gill + 0.114 vrs_Guile + 0.04 vrs_Ibuki + 0.038 vrs_Jam
 - 0.018 vrs_Juri + 0.01 vrs_Kage + 0.048 vrs_Karin + 0.024 vrs_Kolin
 - 0.014 vrs_Laura + 0.044 vrs_Lucia - 0.014 vrs_Menat + 0.03 vrs_Nash
 + 0.012 vrs_Necalli + 0.064 vrs_Poison - 0.068 vrs_R.Mika - 0.112 vrs_Rashid
 + 0.034 vrs_Ryu + 0.08 vrs_Sagat + 0.006 vrs_Sakura + 0.042 vrs_Seth
 + 0.108 vrs_Urien + 0.03 vrs_Zangief + 0.042 vrs_Zeku - vrs_w >= 0
_C75: 0.044 vrs_Abigail - 0.05 vrs_Akuma + 0.07 vrs_Alex + 0.08 vrs_BOXER
 + 0.104 vrs_Birdie + 0.082 vrs_Blanka + 0.118 vrs_CLAW - 0.02 vrs_Cammy
 + 0.052 vrs_Cody + 0.108 vrs_DICTATOR + 0.062 vrs_Dhalsim + 0.126 vrs_E.Honda
 + 0.068 vrs_Edd + 0.112 vrs_Falke + 0.074 vrs_G + 0.074 vrs_Gill
 + 0.024 vrs_Guile + 0.016 vrs_Ibuki + 0.04 vrs_Jam + 0.01 vrs_Juri
 + 0.044 vrs_Karin - 0.01 vrs_Ken + 0.028 vrs_Kolin - 0.012 vrs_Laura
 - 0.018 vrs_Lucia - 0.024 vrs_Menat + 0.038 vrs_Nash + 0.014 vrs_Necalli
 + 0.022 vrs_Poison - 0.05 vrs_R.Mika - 0.096 vrs_Rashid + 0.026 vrs_Ryu
 + 0.058 vrs_Sagat - 0.042 vrs_Sakura + 0.064 vrs_Seth + 0.148 vrs_Urien
 + 0.106 vrs_Zangief + 0.078 vrs_Zeku - vrs_w >= 0
_C76: 0.108 vrs_Abigail - 0.042 vrs_Akuma + 0.058 vrs_Alex + 0.06 vrs_BOXER
 + 0.114 vrs_Birdie + 0.076 vrs_Blanka + 0.064 vrs_CLAW - 0.006 vrs_Cammy
 + 0.006 vrs_ChunLi + 0.08 vrs_Cody + 0.038 vrs_DICTATOR + 0.022 vrs_Dhalsim
 + 0.158 vrs_E.Honda + 0.144 vrs_Edd + 0.078 vrs_Falke - 0.008 vrs_G
 + 0.074 vrs_Gill + 0.054 vrs_Guile + 0.04 vrs_Ibuki + 0.048 vrs_Jam
 + 0.026 vrs_Juri + 0.05 vrs_Kage + 0.052 vrs_Karin + 0.068 vrs_Ken
 + 0.052 vrs_Kolin + 0.08 vrs_Laura + 0.048 vrs_Lucia - 0.116 vrs_Menat
 - 0.026 vrs_Nash + 0.044 vrs_Necalli + 0.004 vrs_Poison - 0.066 vrs_Rashid
 + 0.05 vrs_Ryu + 0.054 vrs_Sagat - 0.064 vrs_Sakura + 0.056 vrs_Seth
 + 0.134 vrs_Urien + 0.132 vrs_Zangief + 0.03 vrs_Zeku - vrs_w >= 0
_C77: 0.15 vrs_Abigail - 0.042 vrs_Akuma + 0.084 vrs_Alex + 0.142 vrs_BOXER
 + 0.092 vrs_Birdie + 0.11 vrs_Blanka + 0.12 vrs_CLAW - 0.008 vrs_ChunLi
 + 0.128 vrs_Cody + 0.114 vrs_DICTATOR + 0.026 vrs_Dhalsim + 0.268 vrs_E.Honda
 + 0.15 vrs_Edd + 0.122 vrs_Falke + 0.11 vrs_G + 0.074 vrs_Gill
 + 0.062 vrs_Guile + 0.01 vrs_Ibuki + 0.01 vrs_Jam + 0.062 vrs_Juri
 + 0.02 vrs_Kage + 0.036 vrs_Karin + 0.006 vrs_Ken + 0.076 vrs_Kolin
 + 0.066 vrs_Laura + 0.044 vrs_Lucia + 0.058 vrs_Menat + 0.026 vrs_Nash
 + 0.034 vrs_Necalli + 0.022 vrs_Poison + 0.006 vrs_R.Mika - 0.076 vrs_Rashid
 - 0.004 vrs_Ryu + 0.076 vrs_Sagat - 0.03 vrs_Sakura + 0.082 vrs_Seth
 + 0.144 vrs_Urien + 0.098 vrs_Zangief + 0.068 vrs_Zeku - vrs_w >= 0
_C78: - 0.002 vrs_Abigail + 0.034 vrs_Alex + 0.138 vrs_BOXER
 + 0.066 vrs_Birdie + 0.108 vrs_Blanka + 0.062 vrs_CLAW + 0.03 vrs_Cammy
 + 0.052 vrs_ChunLi + 0.066 vrs_Cody + 0.122 vrs_DICTATOR + 0.124 vrs_Dhalsim
 + 0.13 vrs_E.Honda + 0.086 vrs_Edd + 0.094 vrs_Falke + 0.064 vrs_G
 + 0.052 vrs_Gill + 0.076 vrs_Guile + 0.058 vrs_Ibuki + 0.042 vrs_Jam
 + 0.06 vrs_Juri + 0.042 vrs_Kage + 0.094 vrs_Karin - 0.006 vrs_Ken
 + 0.034 vrs_Kolin + 0.006 vrs_Laura + 0.042 vrs_Lucia + 0.026 vrs_Menat
 + 0.056 vrs_Nash + 0.06 vrs_Necalli + 0.078 vrs_Poison + 0.064 vrs_R.Mika
 - 0.07 vrs_Rashid + 0.032 vrs_Ryu + 0.058 vrs_Sagat + 0.07 vrs_Seth
 + 0.134 vrs_Urien + 0.022 vrs_Zangief + 0.064 vrs_Zeku - vrs_w >= 0
_C79: 0.166 vrs_Abigail - 0.024 vrs_Akuma + 0.144 vrs_Alex + 0.178 vrs_BOXER
 + 0.168 vrs_Birdie + 0.236 vrs_Blanka + 0.262 vrs_CLAW - 0.056 vrs_Cammy
 - 0.01 vrs_ChunLi + 0.084 vrs_Cody + 0.254 vrs_DICTATOR + 0.134 vrs_Dhalsim
 + 0.24 vrs_E.Honda + 0.146 vrs_Edd + 0.084 vrs_Falke + 0.094 vrs_G
 - 0.046 vrs_Gill + 0.064 vrs_Guile + 0.02 vrs_Ibuki + 0.074 vrs_Jam
 + 0.056 vrs_Juri + 0.024 vrs_Kage + 0.03 vrs_Karin + 0.014 vrs_Ken
 + 0.06 vrs_Kolin + 0.126 vrs_Laura + 0.106 vrs_Lucia + 0.154 vrs_Nash
 + 0.076 vrs_Necalli + 0.076 vrs_Poison + 0.116 vrs_R.Mika + 0.1 vrs_Rashid
 - 0.004 vrs_Ryu + 0.018 vrs_Sagat - 0.026 vrs_Sakura - 0.046 vrs_Seth
 + 0.144 vrs_Urien - 0.078 vrs_Zangief + 0.15 vrs_Zeku - vrs_w >= 0
_C8: vrs_Edd >= 0
_C80: 0.082 vrs_Abigail + 0.09 vrs_Alex + 0.124 vrs_BOXER + 0.108 vrs_Birdie
 + 0.166 vrs_Blanka + 0.096 vrs_CLAW + 0.042 vrs_Cammy + 0.026 vrs_ChunLi
 + 0.06 vrs_Cody + 0.126 vrs_DICTATOR + 0.156 vrs_Dhalsim + 0.144 vrs_E.Honda
 + 0.11 vrs_Edd + 0.098 vrs_Falke + 0.092 vrs_G + 0.06 vrs_Gill
 + 0.112 vrs_Guile + 0.054 vrs_Ibuki + 0.098 vrs_Jam + 0.058 vrs_Juri
 + 0.05 vrs_Kage + 0.08 vrs_Karin + 0.018 vrs_Ken + 0.052 vrs_Kolin
 + 0.064 vrs_Laura + 0.07 vrs_Lucia + 0.024 vrs_Menat + 0.062 vrs_Nash
 + 0.052 vrs_Necalli + 0.092 vrs_Poison + 0.042 vrs_R.Mika - 0.022 vrs_Rashid
 + 0.038 vrs_Ryu + 0.068 vrs_Sagat + 0.088 vrs_Seth + 0.156 vrs_Urien
 + 0.144 vrs_Zangief + 0.118 vrs_Zeku - vrs_w >= 0
_C81: 0.086 vrs_Abigail + 0.022 vrs_Akuma + 0.066 vrs_Alex + 0.2 vrs_BOXER
 + 0.072 vrs_Birdie + 0.116 vrs_Blanka + 0.102 vrs_CLAW + 0.076 vrs_Cammy
 + 0.07 vrs_ChunLi + 0.142 vrs_Cody + 0.112 vrs_DICTATOR - 0.044 vrs_Dhalsim
 + 0.236 vrs_E.Honda + 0.214 vrs_Edd + 0.096 vrs_Falke + 0.08 vrs_G
 + 0.05 vrs_Gill + 0.132 vrs_Guile + 0.07 vrs_Ibuki + 0.06 vrs_Jam
 + 0.036 vrs_Juri + 0.096 vrs_Kage + 0.078 vrs_Karin + 0.112 vrs_Ken
 + 0.09 vrs_Kolin + 0.116 vrs_Laura + 0.084 vrs_Lucia - 0.1 vrs_Menat
 + 0.056 vrs_Nash + 0.076 vrs_Necalli - 0.004 vrs_Poison + 0.066 vrs_R.Mika
 + 0.078 vrs_Ryu + 0.06 vrs_Sagat + 0.07 vrs_Sakura + 0.108 vrs_Seth
 + 0.148 vrs_Urien + 0.098 vrs_Zangief + 0.046 vrs_Zeku - vrs_w >= 0
_C82: vrs_Rashid = 1
_C9: vrs_Birdie >= 0
Bounds
vrs_Abigail free
vrs_Akuma free
vrs_Alex free
vrs_BOXER free
vrs_Birdie free
vrs_Blanka free
vrs_CLAW free
vrs_Cammy free
vrs_ChunLi free
vrs_Cody free
vrs_DICTATOR free
vrs_Dhalsim free
vrs_E.Honda free
vrs_Edd free
vrs_Falke free
vrs_G free
vrs_Gill free
vrs_Guile free
vrs_Ibuki free
vrs_Jam free
vrs_Juri free
vrs_Kage free
vrs_Karin free
vrs_Ken free
vrs_Kolin free
vrs_Laura free
vrs_Lucia free
vrs_Menat free
vrs_Nash free
vrs_Necalli free
vrs_Poison free
vrs_R.Mika free
vrs_Rashid free
vrs_Ryu free
vrs_Sagat free
vrs_Sakura free
vrs_Seth free
vrs_Urien free
vrs_Zangief free
vrs_Zeku free
vrs_w free
End
